p edge 128 3216
e 1 128 4
e 1 125 5
e 1 122 1
e 1 120 4
e 1 119 5
e 1 117 6
e 1 114 4
e 1 110 8
e 1 109 4
e 1 108 4
e 1 105 5
e 1 103 2
e 1 102 6
e 1 100 4
e 1 98 1
e 1 97 2
e 1 92 7
e 1 91 2
e 1 90 7
e 1 88 9
e 1 80 9
e 1 79 4
e 1 78 9
e 1 76 6
e 1 74 7
e 1 73 3
e 1 72 10
e 1 70 10
e 1 68 2
e 1 67 5
e 1 65 1
e 1 64 9
e 1 62 3
e 1 57 8
e 1 55 10
e 1 47 10
e 1 44 8
e 1 43 3
e 1 39 3
e 1 37 4
e 1 33 3
e 1 32 6
e 1 31 10
e 1 28 8
e 1 27 5
e 1 23 3
e 1 19 7
e 1 16 1
e 1 12 9
e 1 8 9
e 2 128 2
e 2 127 6
e 2 126 6
e 2 123 1
e 2 122 6
e 2 118 2
e 2 116 5
e 2 115 1
e 2 114 4
e 2 113 5
e 2 111 6
e 2 110 1
e 2 108 3
e 2 107 4
e 2 106 2
e 2 101 4
e 2 100 7
e 2 99 4
e 2 96 3
e 2 95 5
e 2 94 9
e 2 93 3
e 2 92 3
e 2 91 5
e 2 89 7
e 2 88 6
e 2 86 6
e 2 84 9
e 2 83 10
e 2 82 1
e 2 76 1
e 2 75 9
e 2 73 8
e 2 71 9
e 2 70 6
e 2 69 3
e 2 68 10
e 2 67 1
e 2 66 2
e 2 64 8
e 2 62 5
e 2 61 1
e 2 60 2
e 2 58 2
e 2 56 1
e 2 53 7
e 2 52 2
e 2 46 1
e 2 45 10
e 2 43 1
e 2 41 5
e 2 38 4
e 2 36 3
e 2 30 5
e 2 28 6
e 2 27 1
e 2 25 9
e 2 24 7
e 2 23 2
e 2 22 10
e 2 20 5
e 2 19 4
e 2 14 4
e 2 13 7
e 2 10 10
e 2 8 6
e 2 7 1
e 2 6 9
e 3 124 8
e 3 121 6
e 3 104 4
e 3 87 2
e 3 85 4
e 3 81 4
e 3 77 6
e 3 63 7
e 3 59 9
e 3 54 5
e 3 50 3
e 3 49 6
e 3 48 8
e 3 42 2
e 3 40 10
e 3 37 3
e 3 35 10
e 3 34 4
e 3 33 9
e 3 32 2
e 3 29 10
e 3 26 4
e 3 21 5
e 3 18 10
e 3 17 9
e 3 16 2
e 3 15 10
e 3 12 6
e 3 11 10
e 3 9 5
e 3 5 10
e 3 4 2
e 4 124 2
e 4 112 3
e 4 104 6
e 4 87 8
e 4 85 10
e 4 81 10
e 4 77 6
e 4 63 3
e 4 59 1
e 4 54 5
e 4 50 6
e 4 49 10
e 4 48 5
e 4 42 4
e 4 40 7
e 4 29 6
e 4 26 4
e 4 21 8
e 4 18 6
e 4 17 7
e 4 15 2
e 4 11 5
e 4 9 7
e 4 5 7
e 5 124 4
e 5 121 7
e 5 117 4
e 5 112 1
e 5 104 7
e 5 102 3
e 5 87 8
e 5 85 5
e 5 81 10
e 5 77 10
e 5 74 7
e 5 63 9
e 5 59 1
e 5 54 9
e 5 50 3
e 5 49 9
e 5 48 2
e 5 47 7
e 5 42 8
e 5 40 1
e 5 37 10
e 5 35 1
e 5 33 5
e 5 32 5
e 5 29 4
e 5 26 8
e 5 21 1
e 5 18 8
e 5 16 5
e 5 15 10
e 5 12 9
e 5 11 7
e 5 9 9
e 6 128 9
e 6 127 3
e 6 126 1
e 6 123 3
e 6 122 8
e 6 116 7
e 6 115 1
e 6 113 8
e 6 111 2
e 6 110 5
e 6 108 7
e 6 107 1
e 6 106 9
e 6 103 4
e 6 98 9
e 6 96 4
e 6 95 9
e 6 93 1
e 6 92 4
e 6 91 5
e 6 89 7
e 6 88 3
e 6 84 3
e 6 76 3
e 6 75 8
e 6 71 2
e 6 70 3
e 6 69 1
e 6 68 7
e 6 67 3
e 6 66 9
e 6 64 9
e 6 62 6
e 6 60 5
e 6 57 1
e 6 56 8
e 6 55 3
e 6 53 4
e 6 52 3
e 6 45 6
e 6 41 2
e 6 38 1
e 6 30 5
e 6 28 4
e 6 27 3
e 6 24 1
e 6 23 5
e 6 20 7
e 6 13 5
e 6 10 8
e 6 8 9
e 7 128 5
e 7 127 4
e 7 126 5
e 7 125 5
e 7 123 1
e 7 122 5
e 7 118 4
e 7 117 7
e 7 116 4
e 7 115 3
e 7 114 5
e 7 113 9
e 7 111 6
e 7 110 3
e 7 108 8
e 7 107 6
e 7 105 3
e 7 102 3
e 7 101 9
e 7 100 9
e 7 99 6
e 7 97 3
e 7 94 8
e 7 93 3
e 7 92 6
e 7 91 9
e 7 90 10
e 7 88 9
e 7 86 9
e 7 83 7
e 7 82 5
e 7 79 2
e 7 78 7
e 7 76 5
e 7 75 5
e 7 74 1
e 7 73 3
e 7 69 7
e 7 68 1
e 7 66 7
e 7 65 6
e 7 64 4
e 7 62 9
e 7 61 2
e 7 58 10
e 7 53 1
e 7 52 2
e 7 51 5
e 7 46 9
e 7 45 6
e 7 43 2
e 7 41 7
e 7 39 8
e 7 38 3
e 7 36 10
e 7 30 2
e 7 28 10
e 7 27 10
e 7 25 5
e 7 24 3
e 7 22 10
e 7 20 9
e 7 19 6
e 7 14 10
e 7 10 7
e 7 8 7
e 8 128 8
e 8 127 1
e 8 126 4
e 8 125 8
e 8 123 10
e 8 122 8
e 8 118 2
e 8 117 6
e 8 116 5
e 8 115 9
e 8 114 9
e 8 113 9
e 8 111 9
e 8 110 10
e 8 109 5
e 8 108 3
e 8 107 2
e 8 105 2
e 8 103 5
e 8 102 8
e 8 101 2
e 8 100 8
e 8 99 4
e 8 98 3
e 8 97 2
e 8 96 6
e 8 94 3
e 8 93 8
e 8 92 5
e 8 91 4
e 8 90 8
e 8 89 5
e 8 88 6
e 8 86 3
e 8 84 1
e 8 83 7
e 8 82 4
e 8 80 1
e 8 79 8
e 8 78 7
e 8 76 4
e 8 75 4
e 8 74 5
e 8 73 3
e 8 71 9
e 8 70 1
e 8 69 4
e 8 68 5
e 8 67 6
e 8 66 1
e 8 65 10
e 8 64 9
e 8 62 8
e 8 61 9
e 8 58 3
e 8 57 4
e 8 55 10
e 8 53 9
e 8 52 9
e 8 51 10
e 8 46 7
e 8 45 3
e 8 43 3
e 8 41 2
e 8 39 10
e 8 38 7
e 8 36 3
e 8 33 3
e 8 30 6
e 8 28 2
e 8 27 8
e 8 25 10
e 8 24 2
e 8 20 7
e 8 19 6
e 8 16 9
e 8 14 3
e 8 13 9
e 8 10 2
e 9 124 8
e 9 112 6
e 9 104 9
e 9 87 8
e 9 85 10
e 9 81 9
e 9 77 10
e 9 63 9
e 9 59 10
e 9 54 2
e 9 50 7
e 9 49 2
e 9 48 1
e 9 42 8
e 9 40 2
e 9 29 4
e 9 26 2
e 9 21 5
e 9 18 2
e 9 17 4
e 9 15 5
e 9 11 8
e 10 128 10
e 10 127 3
e 10 126 8
e 10 123 9
e 10 122 10
e 10 118 10
e 10 116 9
e 10 115 7
e 10 114 9
e 10 113 8
e 10 111 2
e 10 110 4
e 10 107 10
e 10 100 10
e 10 99 7
e 10 96 7
e 10 94 8
e 10 93 8
e 10 92 8
e 10 91 4
e 10 89 4
e 10 88 8
e 10 86 1
e 10 84 3
e 10 83 7
e 10 82 2
e 10 76 2
e 10 75 5
e 10 73 10
e 10 71 7
e 10 70 4
e 10 69 5
e 10 68 3
e 10 66 8
e 10 64 8
e 10 62 3
e 10 61 10
e 10 60 2
e 10 58 1
e 10 56 7
e 10 53 7
e 10 52 8
e 10 46 2
e 10 45 10
e 10 43 6
e 10 41 7
e 10 38 4
e 10 36 5
e 10 30 8
e 10 28 4
e 10 27 6
e 10 25 8
e 10 24 9
e 10 23 6
e 10 22 2
e 10 20 5
e 10 19 10
e 10 14 2
e 10 13 3
e 11 124 3
e 11 104 4
e 11 85 6
e 11 81 10
e 11 63 4
e 11 59 4
e 11 50 5
e 11 49 3
e 11 42 7
e 11 40 9
e 11 35 10
e 11 26 6
e 11 21 2
e 11 18 7
e 11 17 8
e 12 128 5
e 12 125 6
e 12 121 5
e 12 120 2
e 12 119 7
e 12 117 7
e 12 114 9
e 12 112 3
e 12 110 8
e 12 109 5
e 12 108 10
e 12 105 2
e 12 103 5
e 12 102 8
e 12 98 3
e 12 97 2
e 12 90 9
e 12 87 4
e 12 80 10
e 12 79 7
e 12 78 8
e 12 74 9
e 12 72 3
e 12 67 6
e 12 57 2
e 12 55 8
e 12 48 1
e 12 47 6
e 12 44 10
e 12 39 8
e 12 37 7
e 12 35 2
e 12 33 6
e 12 32 8
e 12 31 5
e 12 29 4
e 12 27 7
e 12 16 1
e 13 128 5
e 13 127 5
e 13 126 7
e 13 123 2
e 13 122 9
e 13 116 8
e 13 115 8
e 13 113 6
e 13 111 1
e 13 108 8
e 13 107 10
e 13 106 3
e 13 103 4
e 13 96 2
e 13 95 8
e 13 94 8
e 13 93 5
e 13 92 7
e 13 91 3
e 13 89 2
e 13 88 7
e 13 86 2
e 13 84 2
e 13 82 5
e 13 76 1
e 13 75 6
e 13 71 2
e 13 70 7
e 13 69 9
e 13 68 10
e 13 67 8
e 13 66 4
e 13 64 9
e 13 62 7
e 13 61 9
e 13 60 9
e 13 58 7
e 13 57 8
e 13 56 10
e 13 55 4
e 13 53 8
e 13 52 2
e 13 45 2
e 13 41 6
e 13 38 10
e 13 30 5
e 13 28 4
e 13 27 8
e 13 25 10
e 13 24 10
e 13 23 3
e 13 20 9
e 14 128 1
e 14 127 3
e 14 126 10
e 14 125 10
e 14 123 9
e 14 118 1
e 14 117 5
e 14 116 4
e 14 115 6
e 14 114 9
e 14 113 6
e 14 110 7
e 14 108 2
e 14 107 7
e 14 105 1
e 14 101 10
e 14 100 4
e 14 99 2
e 14 97 2
e 14 94 9
e 14 93 1
e 14 92 2
e 14 91 7
e 14 90 6
e 14 88 8
e 14 86 9
e 14 83 8
e 14 82 2
e 14 79 8
e 14 78 4
e 14 76 5
e 14 75 2
e 14 74 8
e 14 73 2
e 14 69 7
e 14 68 1
e 14 66 5
e 14 65 8
e 14 62 4
e 14 58 7
e 14 53 3
e 14 52 10
e 14 51 9
e 14 46 4
e 14 45 1
e 14 43 5
e 14 39 8
e 14 38 7
e 14 30 6
e 14 28 4
e 14 27 8
e 14 25 5
e 14 24 10
e 14 20 3
e 14 19 3
e 15 124 10
e 15 112 2
e 15 104 6
e 15 77 10
e 15 59 9
e 15 54 4
e 15 49 10
e 15 48 1
e 15 40 2
e 15 37 8
e 15 29 6
e 15 26 9
e 15 21 10
e 15 18 8
e 16 128 1
e 16 125 6
e 16 121 9
e 16 120 9
e 16 117 1
e 16 114 4
e 16 110 8
e 16 109 6
e 16 108 10
e 16 105 6
e 16 102 4
e 16 101 10
e 16 100 9
e 16 98 10
e 16 97 4
e 16 90 9
e 16 87 1
e 16 80 6
e 16 79 6
e 16 78 1
e 16 74 7
e 16 73 8
e 16 65 5
e 16 51 3
e 16 48 4
e 16 47 1
e 16 44 7
e 16 43 1
e 16 39 1
e 16 37 5
e 16 35 2
e 16 34 4
e 16 33 10
e 16 32 1
e 16 31 5
e 16 27 6
e 16 19 2
e 17 104 9
e 17 85 2
e 17 81 7
e 17 63 8
e 17 59 10
e 17 50 10
e 17 49 6
e 17 42 1
e 17 21 9
e 18 124 7
e 18 112 5
e 18 104 8
e 18 87 6
e 18 85 4
e 18 81 7
e 18 77 2
e 18 63 3
e 18 59 3
e 18 54 4
e 18 50 2
e 18 49 1
e 18 48 6
e 18 42 1
e 18 40 8
e 18 29 9
e 18 26 5
e 18 21 6
e 19 128 2
e 19 126 3
e 19 125 4
e 19 123 10
e 19 122 2
e 19 121 4
e 19 117 8
e 19 115 9
e 19 114 10
e 19 113 3
e 19 110 9
e 19 109 9
e 19 108 8
e 19 107 5
e 19 105 10
e 19 102 10
e 19 101 8
e 19 100 7
e 19 99 9
e 19 97 1
e 19 94 7
e 19 92 3
e 19 91 7
e 19 90 4
e 19 88 8
e 19 83 8
e 19 80 9
e 19 79 2
e 19 78 3
e 19 76 1
e 19 75 9
e 19 74 2
e 19 73 2
e 19 69 2
e 19 68 8
e 19 67 5
e 19 66 4
e 19 65 6
e 19 64 4
e 19 62 8
e 19 58 5
e 19 52 8
e 19 51 10
e 19 45 5
e 19 43 6
e 19 39 8
e 19 34 4
e 19 33 8
e 19 30 5
e 19 28 9
e 19 27 9
e 19 20 9
e 20 128 4
e 20 127 10
e 20 126 4
e 20 123 7
e 20 122 10
e 20 118 7
e 20 116 2
e 20 115 10
e 20 114 9
e 20 113 8
e 20 111 3
e 20 110 5
e 20 107 3
e 20 101 8
e 20 100 10
e 20 99 1
e 20 96 10
e 20 94 10
e 20 93 10
e 20 92 6
e 20 91 3
e 20 89 7
e 20 88 8
e 20 86 10
e 20 84 4
e 20 83 3
e 20 82 2
e 20 76 3
e 20 75 7
e 20 73 7
e 20 71 3
e 20 69 6
e 20 68 2
e 20 66 3
e 20 64 9
e 20 62 1
e 20 61 3
e 20 58 9
e 20 53 1
e 20 52 6
e 20 46 1
e 20 45 6
e 20 43 1
e 20 41 2
e 20 39 10
e 20 38 8
e 20 36 4
e 20 30 1
e 20 28 8
e 20 27 9
e 20 25 6
e 20 24 8
e 20 22 4
e 21 124 9
e 21 112 8
e 21 104 9
e 21 87 8
e 21 85 10
e 21 81 10
e 21 77 1
e 21 63 6
e 21 59 8
e 21 54 7
e 21 50 4
e 21 49 10
e 21 48 8
e 21 42 1
e 21 40 8
e 21 29 2
e 21 26 2
e 22 127 7
e 22 126 2
e 22 123 1
e 22 118 3
e 22 116 6
e 22 115 1
e 22 113 8
e 22 111 8
e 22 107 5
e 22 99 5
e 22 94 5
e 22 93 8
e 22 92 5
e 22 91 4
e 22 86 10
e 22 84 3
e 22 83 1
e 22 82 6
e 22 75 3
e 22 69 6
e 22 68 10
e 22 66 7
e 22 62 4
e 22 61 2
e 22 58 1
e 22 53 8
e 22 52 2
e 22 46 9
e 22 45 3
e 22 41 5
e 22 38 5
e 22 36 1
e 22 30 9
e 22 28 2
e 22 25 8
e 22 24 7
e 23 128 5
e 23 127 3
e 23 126 9
e 23 123 2
e 23 122 5
e 23 119 8
e 23 113 3
e 23 111 1
e 23 110 6
e 23 109 3
e 23 108 4
e 23 107 5
e 23 106 9
e 23 103 9
e 23 98 8
e 23 96 8
e 23 95 8
e 23 93 4
e 23 92 8
e 23 91 1
e 23 89 9
e 23 88 9
e 23 84 9
e 23 76 1
e 23 75 6
e 23 72 6
e 23 71 6
e 23 70 8
e 23 68 6
e 23 67 9
e 23 66 6
e 23 64 5
e 23 62 8
e 23 60 1
e 23 57 8
e 23 56 7
e 23 55 5
e 23 52 5
e 23 45 2
e 23 44 8
e 23 41 7
e 23 28 4
e 23 27 2
e 23 24 8
e 24 128 6
e 24 127 9
e 24 126 1
e 24 123 10
e 24 122 9
e 24 118 3
e 24 116 8
e 24 115 2
e 24 113 7
e 24 111 9
e 24 107 2
e 24 100 1
e 24 99 6
e 24 96 7
e 24 94 8
e 24 93 9
e 24 92 4
e 24 91 9
e 24 89 1
e 24 88 2
e 24 86 1
e 24 84 4
e 24 83 4
e 24 82 6
e 24 76 5
e 24 75 7
e 24 73 9
e 24 71 3
e 24 70 3
e 24 69 8
e 24 68 5
e 24 66 10
e 24 64 4
e 24 62 3
e 24 61 5
e 24 60 8
e 24 58 4
e 24 53 2
e 24 52 8
e 24 46 8
e 24 45 7
e 24 43 8
e 24 41 1
e 24 38 6
e 24 36 4
e 24 30 8
e 24 28 3
e 24 27 7
e 24 25 6
e 25 128 7
e 25 127 10
e 25 126 8
e 25 123 8
e 25 118 9
e 25 116 9
e 25 115 10
e 25 113 1
e 25 111 2
e 25 107 5
e 25 100 8
e 25 99 10
e 25 96 5
e 25 94 9
e 25 93 7
e 25 92 5
e 25 91 10
e 25 88 3
e 25 86 4
e 25 84 6
e 25 83 7
e 25 82 1
e 25 76 6
e 25 75 10
e 25 73 3
e 25 71 3
e 25 69 7
e 25 68 4
e 25 66 8
e 25 62 1
e 25 61 6
e 25 58 8
e 25 53 2
e 25 52 3
e 25 46 5
e 25 45 4
e 25 43 2
e 25 41 7
e 25 38 2
e 25 36 4
e 25 30 2
e 25 28 10
e 25 27 6
e 26 124 3
e 26 112 7
e 26 104 1
e 26 87 5
e 26 85 6
e 26 81 9
e 26 77 8
e 26 63 6
e 26 59 3
e 26 54 8
e 26 50 4
e 26 49 8
e 26 48 9
e 26 42 4
e 26 40 7
e 26 29 2
e 27 128 2
e 27 127 2
e 27 126 1
e 27 125 3
e 27 123 3
e 27 122 9
e 27 120 9
e 27 119 7
e 27 117 2
e 27 116 6
e 27 115 6
e 27 114 5
e 27 113 6
e 27 111 9
e 27 110 2
e 27 109 7
e 27 108 5
e 27 107 1
e 27 105 5
e 27 103 6
e 27 102 7
e 27 101 6
e 27 100 9
e 27 99 5
e 27 98 7
e 27 97 4
e 27 96 2
e 27 94 3
e 27 93 2
e 27 92 7
e 27 91 9
e 27 90 5
e 27 89 1
e 27 88 3
e 27 84 2
e 27 83 3
e 27 80 1
e 27 79 10
e 27 78 5
e 27 76 7
e 27 75 5
e 27 74 6
e 27 73 3
e 27 72 6
e 27 71 2
e 27 70 3
e 27 69 6
e 27 68 8
e 27 67 2
e 27 66 4
e 27 65 3
e 27 64 7
e 27 62 8
e 27 60 10
e 27 58 6
e 27 57 6
e 27 55 1
e 27 53 6
e 27 52 9
e 27 46 2
e 27 45 5
e 27 44 8
e 27 43 7
e 27 41 1
e 27 39 8
e 27 38 2
e 27 33 9
e 27 32 6
e 27 31 1
e 27 30 4
e 27 28 10
e 28 128 7
e 28 127 5
e 28 126 9
e 28 125 4
e 28 123 6
e 28 122 5
e 28 118 7
e 28 117 7
e 28 116 2
e 28 115 3
e 28 114 1
e 28 113 8
e 28 111 1
e 28 110 5
e 28 109 4
e 28 108 2
e 28 107 3
e 28 105 1
e 28 102 2
e 28 101 6
e 28 100 2
e 28 99 2
e 28 97 6
e 28 96 6
e 28 94 6
e 28 93 8
e 28 92 9
e 28 91 9
e 28 90 9
e 28 89 2
e 28 88 3
e 28 86 2
e 28 84 2
e 28 83 9
e 28 82 1
e 28 80 7
e 28 79 4
e 28 78 1
e 28 76 5
e 28 75 7
e 28 74 9
e 28 73 1
e 28 71 8
e 28 70 8
e 28 69 8
e 28 68 10
e 28 67 10
e 28 66 1
e 28 65 1
e 28 64 4
e 28 62 6
e 28 61 10
e 28 58 9
e 28 55 5
e 28 53 4
e 28 52 1
e 28 46 10
e 28 45 6
e 28 43 8
e 28 41 5
e 28 39 10
e 28 38 1
e 28 36 6
e 28 30 3
e 29 124 2
e 29 112 3
e 29 104 4
e 29 87 1
e 29 77 4
e 29 59 3
e 29 54 5
e 29 49 3
e 29 48 7
e 29 47 2
e 29 40 9
e 29 37 8
e 29 32 8
e 30 128 2
e 30 127 1
e 30 126 1
e 30 123 10
e 30 122 7
e 30 118 7
e 30 116 10
e 30 115 1
e 30 114 9
e 30 113 6
e 30 111 3
e 30 107 1
e 30 100 5
e 30 99 8
e 30 96 3
e 30 94 9
e 30 93 2
e 30 92 3
e 30 91 10
e 30 89 9
e 30 88 3
e 30 86 3
e 30 84 6
e 30 83 10
e 30 82 9
e 30 76 9
e 30 75 8
e 30 73 9
e 30 71 5
e 30 70 4
e 30 69 8
e 30 68 5
e 30 66 5
e 30 64 10
e 30 62 2
e 30 61 2
e 30 60 7
e 30 58 7
e 30 53 6
e 30 52 8
e 30 46 7
e 30 45 4
e 30 43 5
e 30 41 8
e 30 38 6
e 30 36 9
e 31 128 6
e 31 125 4
e 31 122 4
e 31 120 3
e 31 119 4
e 31 117 9
e 31 114 7
e 31 112 10
e 31 110 2
e 31 109 5
e 31 108 4
e 31 105 4
e 31 103 3
e 31 102 6
e 31 98 10
e 31 97 10
e 31 90 7
e 31 88 2
e 31 80 2
e 31 79 1
e 31 78 8
e 31 76 8
e 31 74 10
e 31 72 8
e 31 70 3
e 31 67 2
e 31 64 7
e 31 57 3
e 31 55 9
e 31 47 6
e 31 44 4
e 31 43 9
e 31 39 3
e 31 37 4
e 31 33 2
e 31 32 4
e 32 128 6
e 32 121 2
e 32 120 9
e 32 117 8
e 32 114 1
e 32 112 10
e 32 110 5
e 32 109 4
e 32 108 8
e 32 105 4
e 32 103 1
e 32 102 3
e 32 98 3
e 32 97 2
e 32 90 3
e 32 87 7
e 32 80 9
e 32 79 1
e 32 74 1
e 32 72 2
e 32 65 2
e 32 57 2
e 32 55 2
e 32 48 4
e 32 47 4
e 32 44 8
e 32 39 8
e 32 37 3
e 32 35 8
e 32 33 8
e 33 128 10
e 33 125 6
e 33 121 1
e 33 120 4
e 33 117 5
e 33 114 8
e 33 112 7
e 33 110 2
e 33 109 3
e 33 108 8
e 33 105 10
e 33 103 2
e 33 102 7
e 33 101 1
e 33 100 2
e 33 98 8
e 33 97 5
e 33 91 9
e 33 90 3
e 33 88 7
e 33 87 3
e 33 80 5
e 33 79 1
e 33 78 4
e 33 76 5
e 33 74 10
e 33 73 10
e 33 72 7
e 33 65 8
e 33 62 4
e 33 57 9
e 33 55 9
e 33 51 1
e 33 48 4
e 33 47 3
e 33 44 5
e 33 43 4
e 33 39 7
e 33 37 9
e 33 35 1
e 33 34 4
e 34 125 9
e 34 121 6
e 34 117 5
e 34 114 6
e 34 105 3
e 34 101 2
e 34 97 1
e 34 87 6
e 34 81 8
e 34 78 2
e 34 74 1
e 34 73 6
e 34 65 5
e 34 63 10
e 34 51 1
e 34 50 2
e 34 39 1
e 34 35 10
e 35 125 8
e 35 121 10
e 35 117 10
e 35 114 9
e 35 105 8
e 35 102 7
e 35 97 5
e 35 90 8
e 35 87 9
e 35 81 4
e 35 80 5
e 35 79 10
e 35 78 7
e 35 74 1
e 35 65 2
e 35 63 4
e 35 51 5
e 35 50 6
e 35 48 8
e 35 47 3
e 35 42 3
e 35 39 1
e 35 37 2
e 36 127 6
e 36 126 3
e 36 123 1
e 36 118 2
e 36 116 8
e 36 115 5
e 36 113 5
e 36 111 10
e 36 107 9
e 36 99 7
e 36 96 3
e 36 94 8
e 36 93 1
e 36 92 3
e 36 91 1
e 36 88 1
e 36 86 2
e 36 84 1
e 36 83 5
e 36 82 5
e 36 75 10
e 36 69 2
e 36 68 7
e 36 66 10
e 36 62 9
e 36 61 9
e 36 58 7
e 36 53 5
e 36 52 5
e 36 46 10
e 36 45 6
e 36 41 5
e 36 38 10
e 37 120 9
e 37 119 8
e 37 117 4
e 37 112 4
e 37 110 5
e 37 109 8
e 37 108 10
e 37 105 3
e 37 103 1
e 37 102 9
e 37 98 8
e 37 90 1
e 37 87 9
e 37 80 6
e 37 79 6
e 37 77 6
e 37 74 4
e 37 72 5
e 37 57 1
e 37 55 1
e 37 54 4
e 37 48 4
e 37 47 8
e 37 44 5
e 38 128 6
e 38 127 2
e 38 126 2
e 38 123 4
e 38 122 6
e 38 118 9
e 38 116 8
e 38 115 2
e 38 113 10
e 38 111 1
e 38 107 4
e 38 100 7
e 38 99 2
e 38 96 7
e 38 94 10
e 38 93 8
e 38 92 6
e 38 91 7
e 38 89 10
e 38 88 6
e 38 86 6
e 38 84 3
e 38 83 1
e 38 82 3
e 38 76 9
e 38 75 3
e 38 71 3
e 38 69 5
e 38 68 2
e 38 66 1
e 38 62 9
e 38 61 4
e 38 60 7
e 38 58 7
e 38 53 10
e 38 52 1
e 38 46 2
e 38 45 7
e 38 43 3
e 38 41 3
e 39 128 3
e 39 126 4
e 39 125 4
e 39 123 10
e 39 122 5
e 39 121 2
e 39 117 4
e 39 115 8
e 39 114 7
e 39 113 3
e 39 110 1
e 39 109 1
e 39 108 8
e 39 107 10
e 39 105 8
e 39 103 5
e 39 102 8
e 39 101 7
e 39 100 10
e 39 99 6
e 39 98 10
e 39 97 5
e 39 94 8
e 39 92 2
e 39 91 9
e 39 90 2
e 39 88 6
e 39 83 7
e 39 80 9
e 39 79 4
e 39 78 6
e 39 76 9
e 39 74 5
e 39 73 9
e 39 69 8
e 39 68 2
e 39 66 5
e 39 65 10
e 39 64 5
e 39 62 7
e 39 57 5
e 39 55 4
e 39 52 1
e 39 51 1
e 39 45 1
e 39 43 10
e 40 124 6
e 40 112 7
e 40 104 10
e 40 85 9
e 40 81 10
e 40 77 3
e 40 59 7
e 40 54 1
e 40 49 2
e 40 48 10
e 40 42 1
e 41 128 6
e 41 127 3
e 41 126 6
e 41 123 8
e 41 122 5
e 41 118 9
e 41 116 8
e 41 115 6
e 41 113 3
e 41 111 8
e 41 107 9
e 41 99 9
e 41 96 10
e 41 94 9
e 41 93 7
e 41 92 2
e 41 91 2
e 41 89 2
e 41 88 5
e 41 86 10
e 41 84 3
e 41 83 8
e 41 82 4
e 41 76 10
e 41 75 4
e 41 71 1
e 41 70 2
e 41 69 8
e 41 68 2
e 41 66 9
e 41 62 4
e 41 61 9
e 41 60 5
e 41 58 1
e 41 56 10
e 41 53 1
e 41 52 4
e 41 46 9
e 41 45 9
e 41 43 6
e 42 124 6
e 42 104 8
e 42 87 4
e 42 85 4
e 42 81 7
e 42 63 8
e 42 59 6
e 42 50 1
e 42 49 5
e 42 48 1
e 43 128 2
e 43 127 3
e 43 126 1
e 43 125 2
e 43 123 5
e 43 122 5
e 43 118 7
e 43 117 5
e 43 116 5
e 43 115 5
e 43 114 9
e 43 113 7
e 43 111 9
e 43 110 1
e 43 109 5
e 43 108 2
e 43 107 2
e 43 105 2
e 43 103 10
e 43 102 2
e 43 101 7
e 43 100 10
e 43 99 3
e 43 98 1
e 43 97 2
e 43 96 4
e 43 94 1
e 43 93 6
e 43 92 4
e 43 91 2
e 43 90 3
e 43 88 1
e 43 86 5
e 43 83 9
e 43 82 10
e 43 80 8
e 43 79 5
e 43 78 5
e 43 76 10
e 43 75 8
e 43 74 6
e 43 73 4
e 43 71 10
e 43 70 9
e 43 69 5
e 43 68 1
e 43 67 3
e 43 66 10
e 43 65 7
e 43 64 7
e 43 62 1
e 43 58 6
e 43 57 7
e 43 55 8
e 43 53 5
e 43 52 9
e 43 51 1
e 43 46 3
e 43 45 5
e 44 128 9
e 44 122 9
e 44 120 2
e 44 119 3
e 44 117 7
e 44 114 6
e 44 112 9
e 44 110 9
e 44 109 9
e 44 108 5
e 44 105 8
e 44 103 3
e 44 102 7
e 44 98 9
e 44 90 3
e 44 89 8
e 44 88 6
e 44 80 9
e 44 79 10
e 44 76 1
e 44 74 9
e 44 72 9
e 44 71 9
e 44 70 10
e 44 67 4
e 44 64 3
e 44 57 9
e 44 55 6
e 44 47 9
e 45 128 8
e 45 127 1
e 45 126 5
e 45 125 9
e 45 123 3
e 45 122 1
e 45 118 9
e 45 116 3
e 45 115 3
e 45 114 10
e 45 113 9
e 45 111 9
e 45 110 7
e 45 108 9
e 45 107 7
e 45 101 7
e 45 100 9
e 45 99 2
e 45 96 4
e 45 94 2
e 45 93 4
e 45 92 2
e 45 91 2
e 45 90 3
e 45 89 5
e 45 88 8
e 45 86 3
e 45 84 1
e 45 83 9
e 45 82 9
e 45 79 5
e 45 78 5
e 45 76 3
e 45 75 10
e 45 74 8
e 45 73 8
e 45 71 1
e 45 70 1
e 45 69 5
e 45 68 8
e 45 66 1
e 45 64 10
e 45 62 8
e 45 61 4
e 45 60 10
e 45 58 9
e 45 53 10
e 45 52 5
e 45 46 4
e 46 128 9
e 46 127 8
e 46 126 7
e 46 123 10
e 46 118 10
e 46 116 1
e 46 115 8
e 46 113 6
e 46 111 7
e 46 107 5
e 46 100 4
e 46 99 3
e 46 96 10
e 46 94 7
e 46 93 9
e 46 92 2
e 46 91 10
e 46 88 1
e 46 86 6
e 46 84 2
e 46 83 3
e 46 82 9
e 46 76 1
e 46 75 3
e 46 73 1
e 46 69 5
e 46 68 1
e 46 66 3
e 46 62 8
e 46 61 5
e 46 58 4
e 46 53 6
e 46 52 4
e 47 120 9
e 47 119 6
e 47 117 2
e 47 112 5
e 47 110 6
e 47 109 2
e 47 108 2
e 47 103 9
e 47 102 8
e 47 98 9
e 47 90 2
e 47 87 1
e 47 80 1
e 47 79 1
e 47 77 4
e 47 74 2
e 47 72 9
e 47 67 9
e 47 57 1
e 47 55 2
e 47 54 9
e 47 48 3
e 48 124 2
e 48 112 2
e 48 104 5
e 48 87 7
e 48 81 9
e 48 77 3
e 48 63 6
e 48 54 3
e 48 49 6
e 49 124 8
e 49 104 7
e 49 85 6
e 49 81 9
e 49 77 1
e 49 63 10
e 49 59 5
e 49 54 6
e 49 50 5
e 50 124 5
e 50 104 1
e 50 87 7
e 50 85 6
e 50 81 4
e 50 63 4
e 50 59 4
e 51 128 1
e 51 125 9
e 51 121 9
e 51 117 10
e 51 114 6
e 51 110 3
e 51 105 1
e 51 102 4
e 51 101 6
e 51 100 4
e 51 97 10
e 51 91 1
e 51 90 5
e 51 80 2
e 51 79 9
e 51 78 7
e 51 74 3
e 51 73 1
e 51 65 8
e 51 62 10
e 52 128 6
e 52 127 1
e 52 126 6
e 52 125 7
e 52 123 5
e 52 122 4
e 52 118 1
e 52 117 9
e 52 116 9
e 52 115 2
e 52 114 10
e 52 113 9
e 52 111 3
e 52 110 9
e 52 109 4
e 52 108 5
e 52 107 6
e 52 105 8
e 52 102 4
e 52 101 8
e 52 100 8
e 52 99 9
e 52 97 4
e 52 96 7
e 52 94 5
e 52 93 4
e 52 92 7
e 52 91 7
e 52 90 6
e 52 89 9
e 52 88 1
e 52 86 2
e 52 84 7
e 52 83 8
e 52 82 7
e 52 80 6
e 52 79 9
e 52 78 1
e 52 76 6
e 52 75 2
e 52 74 6
e 52 73 7
e 52 71 4
e 52 70 2
e 52 69 10
e 52 68 7
e 52 67 1
e 52 66 1
e 52 64 10
e 52 62 9
e 52 61 3
e 52 58 9
e 52 55 10
e 52 53 1
e 53 128 6
e 53 127 8
e 53 126 3
e 53 123 2
e 53 118 10
e 53 116 1
e 53 115 9
e 53 114 8
e 53 113 10
e 53 111 6
e 53 107 6
e 53 100 6
e 53 99 6
e 53 96 2
e 53 94 9
e 53 93 9
e 53 92 7
e 53 91 9
e 53 88 2
e 53 86 7
e 53 84 5
e 53 83 1
e 53 82 2
e 53 76 5
e 53 75 10
e 53 73 2
e 53 71 9
e 53 69 10
e 53 68 9
e 53 66 10
e 53 62 8
e 53 61 10
e 53 58 2
e 54 124 6
e 54 112 4
e 54 104 1
e 54 87 4
e 54 77 2
e 55 128 1
e 55 127 3
e 55 122 6
e 55 120 3
e 55 119 3
e 55 117 10
e 55 114 1
e 55 110 7
e 55 109 10
e 55 108 10
e 55 107 7
e 55 105 2
e 55 103 1
e 55 102 7
e 55 100 6
e 55 98 5
e 55 97 8
e 55 96 3
e 55 92 8
e 55 91 2
e 55 90 7
e 55 89 1
e 55 88 1
e 55 80 9
e 55 79 1
e 55 78 5
e 55 76 9
e 55 75 3
e 55 74 3
e 55 73 3
e 55 72 4
e 55 71 1
e 55 70 3
e 55 68 5
e 55 67 8
e 55 64 9
e 55 62 8
e 55 60 10
e 55 57 10
e 55 56 2
e 56 127 1
e 56 122 2
e 56 113 4
e 56 111 3
e 56 107 7
e 56 106 8
e 56 96 3
e 56 95 1
e 56 93 10
e 56 89 4
e 56 84 2
e 56 76 1
e 56 75 2
e 56 71 7
e 56 70 3
e 56 67 9
e 56 64 8
e 56 60 9
e 56 57 6
e 57 128 1
e 57 127 9
e 57 122 5
e 57 120 5
e 57 119 7
e 57 117 8
e 57 114 7
e 57 110 1
e 57 109 2
e 57 108 1
e 57 107 3
e 57 105 2
e 57 103 8
e 57 102 5
e 57 100 3
e 57 98 4
e 57 96 8
e 57 95 2
e 57 92 6
e 57 91 1
e 57 90 1
e 57 89 6
e 57 88 2
e 57 80 8
e 57 79 1
e 57 76 6
e 57 74 6
e 57 72 7
e 57 71 10
e 57 70 5
e 57 68 10
e 57 67 10
e 57 64 1
e 57 62 6
e 57 60 3
e 58 128 8
e 58 127 2
e 58 126 10
e 58 123 1
e 58 118 8
e 58 116 6
e 58 115 1
e 58 114 7
e 58 113 10
e 58 111 2
e 58 107 4
e 58 100 5
e 58 99 9
e 58 96 2
e 58 94 1
e 58 93 6
e 58 92 8
e 58 91 6
e 58 88 1
e 58 86 10
e 58 84 7
e 58 83 5
e 58 82 7
e 58 76 8
e 58 75 6
e 58 73 7
e 58 71 6
e 58 69 6
e 58 68 5
e 58 66 5
e 58 62 2
e 58 61 5
e 59 124 4
e 59 104 6
e 59 87 10
e 59 85 2
e 59 81 10
e 59 77 6
e 59 63 7
e 60 128 5
e 60 127 1
e 60 126 9
e 60 123 4
e 60 122 6
e 60 113 7
e 60 111 9
e 60 107 7
e 60 106 1
e 60 103 2
e 60 96 7
e 60 95 10
e 60 93 3
e 60 92 3
e 60 89 2
e 60 88 1
e 60 84 2
e 60 76 9
e 60 75 8
e 60 71 9
e 60 70 3
e 60 68 6
e 60 67 1
e 60 64 1
e 61 127 8
e 61 126 5
e 61 123 9
e 61 118 4
e 61 116 8
e 61 115 5
e 61 113 5
e 61 111 4
e 61 107 5
e 61 99 10
e 61 96 2
e 61 94 5
e 61 93 6
e 61 92 1
e 61 91 9
e 61 88 10
e 61 86 8
e 61 84 1
e 61 83 9
e 61 82 3
e 61 76 5
e 61 75 7
e 61 71 2
e 61 69 7
e 61 68 5
e 61 66 4
e 61 62 5
e 62 128 6
e 62 127 2
e 62 126 8
e 62 125 1
e 62 123 1
e 62 122 7
e 62 118 7
e 62 117 10
e 62 116 10
e 62 115 7
e 62 114 6
e 62 113 8
e 62 111 5
e 62 110 6
e 62 109 10
e 62 108 1
e 62 107 2
e 62 105 7
e 62 103 9
e 62 102 10
e 62 101 1
e 62 100 5
e 62 99 7
e 62 98 2
e 62 97 6
e 62 96 1
e 62 94 6
e 62 93 5
e 62 92 2
e 62 91 10
e 62 90 7
e 62 89 7
e 62 88 6
e 62 86 6
e 62 84 1
e 62 83 9
e 62 82 1
e 62 80 6
e 62 79 9
e 62 78 4
e 62 76 7
e 62 75 8
e 62 74 4
e 62 73 10
e 62 71 2
e 62 70 6
e 62 69 10
e 62 68 10
e 62 67 10
e 62 66 3
e 62 65 1
e 62 64 10
e 63 124 9
e 63 121 5
e 63 104 6
e 63 87 8
e 63 85 1
e 63 81 10
e 64 128 7
e 64 127 5
e 64 126 9
e 64 125 2
e 64 123 10
e 64 122 4
e 64 120 3
e 64 119 8
e 64 117 1
e 64 115 3
e 64 114 1
e 64 113 1
e 64 111 8
e 64 110 10
e 64 109 1
e 64 108 3
e 64 107 7
e 64 106 3
e 64 105 3
e 64 103 3
e 64 102 9
e 64 101 3
e 64 100 10
e 64 99 10
e 64 98 1
e 64 96 1
e 64 95 9
e 64 93 3
e 64 92 9
e 64 91 2
e 64 90 3
e 64 89 10
e 64 88 6
e 64 84 3
e 64 80 7
e 64 79 10
e 64 78 6
e 64 76 6
e 64 75 10
e 64 74 1
e 64 73 5
e 64 72 7
e 64 71 10
e 64 70 7
e 64 69 5
e 64 68 1
e 64 67 1
e 64 66 1
e 65 128 3
e 65 125 5
e 65 121 5
e 65 117 4
e 65 114 3
e 65 110 6
e 65 109 5
e 65 108 6
e 65 105 3
e 65 102 8
e 65 101 8
e 65 100 1
e 65 99 8
e 65 97 9
e 65 91 6
e 65 90 10
e 65 88 6
e 65 87 2
e 65 80 1
e 65 79 2
e 65 78 10
e 65 76 6
e 65 74 6
e 65 73 7
e 65 68 4
e 66 128 7
e 66 127 5
e 66 126 2
e 66 125 10
e 66 123 8
e 66 122 6
e 66 118 8
e 66 117 4
e 66 116 4
e 66 115 7
e 66 114 9
e 66 113 4
e 66 111 5
e 66 110 2
e 66 109 9
e 66 108 3
e 66 107 6
e 66 105 9
e 66 102 9
e 66 101 9
e 66 100 6
e 66 99 8
e 66 97 2
e 66 96 10
e 66 94 10
e 66 93 5
e 66 92 8
e 66 91 5
e 66 90 7
e 66 89 5
e 66 88 3
e 66 86 6
e 66 84 1
e 66 83 4
e 66 82 5
e 66 79 5
e 66 78 1
e 66 76 6
e 66 75 8
e 66 74 6
e 66 73 6
e 66 71 3
e 66 70 1
e 66 69 4
e 66 68 7
e 66 67 10
e 67 128 1
e 67 127 6
e 67 126 1
e 67 123 2
e 67 122 3
e 67 120 8
e 67 119 10
e 67 117 9
e 67 115 3
e 67 114 9
e 67 111 6
e 67 110 9
e 67 109 5
e 67 108 4
e 67 107 9
e 67 106 1
e 67 103 1
e 67 102 4
e 67 100 8
e 67 99 5
e 67 98 7
e 67 96 2
e 67 95 4
e 67 92 10
e 67 91 3
e 67 90 7
e 67 89 1
e 67 88 10
e 67 84 6
e 67 80 9
e 67 79 10
e 67 76 10
e 67 75 6
e 67 74 6
e 67 73 5
e 67 72 9
e 67 71 10
e 67 70 2
e 67 68 1
e 68 128 5
e 68 127 2
e 68 126 4
e 68 125 8
e 68 123 1
e 68 122 9
e 68 118 3
e 68 117 4
e 68 116 4
e 68 115 7
e 68 114 4
e 68 113 10
e 68 111 1
e 68 110 4
e 68 109 4
e 68 108 6
e 68 107 6
e 68 105 9
e 68 103 5
e 68 102 4
e 68 101 5
e 68 100 3
e 68 99 1
e 68 98 8
e 68 97 3
e 68 96 8
e 68 94 10
e 68 93 8
e 68 92 8
e 68 91 10
e 68 90 4
e 68 89 2
e 68 88 1
e 68 86 1
e 68 84 2
e 68 83 3
e 68 82 8
e 68 80 3
e 68 79 2
e 68 78 3
e 68 76 10
e 68 75 3
e 68 74 1
e 68 73 8
e 68 71 2
e 68 70 4
e 68 69 4
e 69 128 7
e 69 127 7
e 69 126 6
e 69 125 10
e 69 123 10
e 69 122 3
e 69 118 7
e 69 116 6
e 69 115 2
e 69 114 7
e 69 113 8
e 69 111 1
e 69 110 6
e 69 108 7
e 69 107 4
e 69 101 10
e 69 100 9
e 69 99 9
e 69 96 1
e 69 94 7
e 69 93 5
e 69 92 9
e 69 91 7
e 69 88 9
e 69 86 3
e 69 84 10
e 69 83 3
e 69 82 5
e 69 79 2
e 69 78 1
e 69 76 10
e 69 75 2
e 69 74 3
e 69 73 6
e 69 71 6
e 69 70 10
e 70 128 10
e 70 127 1
e 70 126 7
e 70 123 4
e 70 122 1
e 70 120 9
e 70 119 9
e 70 115 7
e 70 114 10
e 70 113 3
e 70 111 4
e 70 110 10
e 70 109 3
e 70 108 1
e 70 107 1
e 70 106 7
e 70 103 1
e 70 102 1
e 70 100 2
e 70 99 5
e 70 98 10
e 70 96 9
e 70 95 7
e 70 93 6
e 70 92 7
e 70 91 9
e 70 90 5
e 70 89 10
e 70 88 2
e 70 84 1
e 70 80 3
e 70 79 3
e 70 76 4
e 70 75 1
e 70 72 7
e 70 71 2
e 71 128 7
e 71 127 2
e 71 126 7
e 71 123 8
e 71 122 8
e 71 116 2
e 71 115 9
e 71 113 10
e 71 111 8
e 71 110 10
e 71 108 3
e 71 107 4
e 71 106 1
e 71 103 7
e 71 99 4
e 71 98 10
e 71 96 9
e 71 95 3
e 71 94 5
e 71 93 9
e 71 92 9
e 71 91 8
e 71 89 6
e 71 88 2
e 71 86 9
e 71 84 9
e 71 76 2
e 71 75 2
e 72 122 10
e 72 120 3
e 72 119 6
e 72 112 1
e 72 110 8
e 72 109 4
e 72 108 3
e 72 103 2
e 72 102 5
e 72 98 7
e 72 90 8
e 72 80 5
e 72 79 7
e 73 128 6
e 73 127 1
e 73 126 9
e 73 125 6
e 73 123 6
e 73 122 2
e 73 121 6
e 73 117 7
e 73 116 3
e 73 115 7
e 73 114 9
e 73 113 2
e 73 110 5
e 73 109 9
e 73 108 2
e 73 107 4
e 73 105 9
e 73 102 9
e 73 101 6
e 73 100 5
e 73 99 7
e 73 97 10
e 73 94 6
e 73 92 4
e 73 91 9
e 73 90 4
e 73 88 10
e 73 83 4
e 73 80 7
e 73 79 1
e 73 78 1
e 73 76 10
e 73 75 4
e 73 74 1
e 74 128 3
e 74 126 5
e 74 125 2
e 74 123 2
e 74 121 9
e 74 120 10
e 74 117 8
e 74 115 10
e 74 114 2
e 74 110 6
e 74 109 3
e 74 108 3
e 74 105 10
e 74 103 5
e 74 102 3
e 74 101 4
e 74 100 4
e 74 99 6
e 74 98 8
e 74 97 4
e 74 92 7
e 74 91 5
e 74 90 3
e 74 88 10
e 74 87 2
e 74 80 6
e 74 79 2
e 74 78 10
e 74 76 8
e 75 128 10
e 75 127 3
e 75 126 5
e 75 123 8
e 75 122 8
e 75 118 6
e 75 116 10
e 75 115 4
e 75 114 8
e 75 113 7
e 75 111 7
e 75 110 8
e 75 108 4
e 75 107 6
e 75 106 3
e 75 101 2
e 75 100 4
e 75 99 4
e 75 96 9
e 75 95 3
e 75 94 4
e 75 93 3
e 75 92 6
e 75 91 4
e 75 89 4
e 75 88 9
e 75 86 1
e 75 84 6
e 75 83 2
e 75 82 9
e 75 79 8
e 75 76 7
e 76 128 8
e 76 127 6
e 76 126 5
e 76 125 8
e 76 123 4
e 76 122 6
e 76 118 3
e 76 117 3
e 76 116 1
e 76 115 1
e 76 114 4
e 76 113 7
e 76 111 4
e 76 110 6
e 76 109 6
e 76 108 5
e 76 107 1
e 76 105 10
e 76 103 4
e 76 102 9
e 76 101 2
e 76 100 1
e 76 99 9
e 76 98 2
e 76 97 9
e 76 96 8
e 76 95 9
e 76 94 3
e 76 93 1
e 76 92 5
e 76 91 5
e 76 90 6
e 76 89 6
e 76 88 1
e 76 86 6
e 76 84 8
e 76 83 9
e 76 82 2
e 76 80 3
e 76 79 3
e 76 78 7
e 77 124 6
e 77 112 1
e 77 104 10
e 77 87 3
e 78 128 3
e 78 126 8
e 78 125 9
e 78 123 3
e 78 121 4
e 78 117 10
e 78 115 2
e 78 114 10
e 78 110 8
e 78 109 5
e 78 108 3
e 78 107 6
e 78 105 2
e 78 102 10
e 78 101 1
e 78 100 10
e 78 99 8
e 78 98 1
e 78 97 6
e 78 92 5
e 78 91 1
e 78 90 10
e 78 88 9
e 78 83 2
e 78 80 4
e 78 79 8
e 79 128 9
e 79 126 6
e 79 125 7
e 79 123 6
e 79 122 10
e 79 121 6
e 79 120 1
e 79 119 5
e 79 117 5
e 79 115 2
e 79 114 5
e 79 110 4
e 79 109 5
e 79 108 9
e 79 107 8
e 79 105 5
e 79 103 5
e 79 102 1
e 79 101 10
e 79 100 7
e 79 99 10
e 79 98 3
e 79 97 10
e 79 92 3
e 79 91 9
e 79 90 5
e 79 88 5
e 79 87 7
e 79 83 3
e 79 80 5
e 80 128 6
e 80 125 8
e 80 122 7
e 80 120 7
e 80 119 9
e 80 117 6
e 80 114 8
e 80 110 8
e 80 109 6
e 80 108 2
e 80 105 9
e 80 103 10
e 80 102 10
e 80 101 8
e 80 100 9
e 80 99 9
e 80 98 8
e 80 97 10
e 80 92 3
e 80 91 3
e 80 90 10
e 80 88 3
e 80 87 10
e 81 124 5
e 81 104 10
e 81 87 7
e 81 85 9
e 82 128 10
e 82 127 2
e 82 126 4
e 82 123 2
e 82 118 6
e 82 116 1
e 82 115 9
e 82 113 7
e 82 111 6
e 82 107 5
e 82 99 10
e 82 96 2
e 82 94 7
e 82 93 4
e 82 92 3
e 82 91 8
e 82 88 1
e 82 86 8
e 82 84 9
e 82 83 7
e 83 128 1
e 83 127 9
e 83 126 4
e 83 125 3
e 83 123 9
e 83 118 2
e 83 116 8
e 83 115 10
e 83 114 6
e 83 113 10
e 83 111 3
e 83 110 6
e 83 108 8
e 83 107 9
e 83 101 2
e 83 100 10
e 83 99 9
e 83 96 7
e 83 94 9
e 83 93 1
e 83 92 6
e 83 91 1
e 83 88 5
e 83 86 3
e 83 84 6
e 84 128 10
e 84 127 6
e 84 126 6
e 84 123 7
e 84 122 2
e 84 118 8
e 84 116 7
e 84 115 2
e 84 113 9
e 84 111 3
e 84 107 4
e 84 106 6
e 84 99 2
e 84 96 3
e 84 95 8
e 84 94 10
e 84 93 6
e 84 92 5
e 84 91 10
e 84 89 3
e 84 88 1
e 84 86 2
e 85 124 8
e 85 104 2
e 86 127 7
e 86 126 3
e 86 123 7
e 86 118 5
e 86 116 10
e 86 115 2
e 86 113 9
e 86 111 4
e 86 107 5
e 86 99 3
e 86 96 9
e 86 94 8
e 86 93 9
e 86 92 5
e 86 91 10
e 86 88 6
e 87 124 4
e 87 121 2
e 87 117 3
e 87 112 3
e 87 105 5
e 87 104 10
e 87 102 3
e 87 97 2
e 87 90 5
e 88 128 9
e 88 127 9
e 88 126 9
e 88 125 7
e 88 123 5
e 88 122 1
e 88 118 1
e 88 117 6
e 88 116 2
e 88 115 10
e 88 114 1
e 88 113 2
e 88 111 10
e 88 110 10
e 88 109 6
e 88 108 1
e 88 107 7
e 88 105 4
e 88 103 5
e 88 102 2
e 88 101 3
e 88 100 9
e 88 99 4
e 88 98 9
e 88 97 2
e 88 96 3
e 88 94 7
e 88 93 4
e 88 92 4
e 88 91 9
e 88 90 3
e 88 89 1
e 89 128 9
e 89 127 6
e 89 126 4
e 89 123 10
e 89 122 8
e 89 119 7
e 89 116 10
e 89 115 9
e 89 113 10
e 89 111 3
e 89 110 3
e 89 108 1
e 89 107 4
e 89 106 8
e 89 103 3
e 89 98 4
e 89 96 3
e 89 95 1
e 89 93 7
e 89 92 5
e 89 91 6
e 90 128 9
e 90 126 1
e 90 125 6
e 90 123 8
e 90 122 10
e 90 121 10
e 90 120 4
e 90 119 10
e 90 117 5
e 90 115 7
e 90 114 4
e 90 110 5
e 90 109 9
e 90 108 7
e 90 107 9
e 90 105 7
e 90 103 9
e 90 102 3
e 90 101 2
e 90 100 7
e 90 99 10
e 90 98 3
e 90 97 7
e 90 92 5
e 90 91 9
e 91 128 3
e 91 127 2
e 91 126 1
e 91 125 3
e 91 123 7
e 91 122 6
e 91 118 4
e 91 117 9
e 91 116 3
e 91 115 9
e 91 114 10
e 91 113 8
e 91 111 5
e 91 110 3
e 91 109 10
e 91 108 7
e 91 107 4
e 91 105 9
e 91 102 3
e 91 101 5
e 91 100 9
e 91 99 6
e 91 98 10
e 91 97 9
e 91 96 1
e 91 94 1
e 91 93 5
e 91 92 7
e 92 128 10
e 92 127 1
e 92 126 9
e 92 125 5
e 92 123 8
e 92 122 4
e 92 118 10
e 92 117 1
e 92 116 8
e 92 115 5
e 92 114 10
e 92 113 4
e 92 111 10
e 92 110 9
e 92 109 2
e 92 108 4
e 92 107 6
e 92 105 7
e 92 102 2
e 92 101 9
e 92 100 3
e 92 99 8
e 92 98 2
e 92 97 5
e 92 96 8
e 92 94 2
e 92 93 5
e 93 128 7
e 93 127 6
e 93 126 3
e 93 123 9
e 93 122 10
e 93 118 8
e 93 116 6
e 93 115 1
e 93 113 8
e 93 111 10
e 93 107 10
e 93 106 3
e 93 100 5
e 93 99 8
e 93 96 5
e 93 95 4
e 93 94 10
e 94 128 3
e 94 127 6
e 94 126 5
e 94 123 6
e 94 118 3
e 94 116 4
e 94 115 9
e 94 114 5
e 94 113 8
e 94 111 6
e 94 110 4
e 94 107 6
e 94 101 6
e 94 100 8
e 94 99 2
e 94 96 3
e 95 127 6
e 95 122 2
e 95 111 3
e 95 107 4
e 95 106 5
e 95 96 4
e 96 128 5
e 96 127 3
e 96 126 3
e 96 123 2
e 96 122 8
e 96 118 8
e 96 116 7
e 96 115 6
e 96 113 1
e 96 111 2
e 96 110 5
e 96 108 6
e 96 107 5
e 96 106 3
e 96 99 5
e 97 128 9
e 97 125 10
e 97 121 4
e 97 117 7
e 97 114 3
e 97 110 7
e 97 109 8
e 97 108 7
e 97 105 6
e 97 102 3
e 97 101 5
e 97 100 7
e 97 99 8
e 97 98 5
e 98 128 3
e 98 125 8
e 98 122 6
e 98 120 6
e 98 119 5
e 98 117 6
e 98 114 2
e 98 112 10
e 98 110 2
e 98 109 4
e 98 108 7
e 98 105 8
e 98 103 1
e 98 102 1
e 98 100 7
e 99 128 4
e 99 127 3
e 99 126 4
e 99 125 6
e 99 123 7
e 99 122 7
e 99 118 4
e 99 117 10
e 99 116 2
e 99 115 7
e 99 114 9
e 99 113 6
e 99 111 8
e 99 110 4
e 99 109 9
e 99 108 6
e 99 107 4
e 99 105 9
e 99 102 10
e 99 101 1
e 99 100 10
e 100 128 6
e 100 127 3
e 100 126 6
e 100 125 6
e 100 123 2
e 100 122 5
e 100 121 3
e 100 117 6
e 100 116 7
e 100 115 9
e 100 114 2
e 100 113 10
e 100 110 9
e 100 109 2
e 100 108 3
e 100 107 1
e 100 105 8
e 100 102 4
e 100 101 8
e 101 128 7
e 101 126 3
e 101 125 9
e 101 123 7
e 101 121 6
e 101 117 3
e 101 115 3
e 101 114 1
e 101 113 5
e 101 110 9
e 101 109 4
e 101 108 5
e 101 107 7
e 101 105 6
e 101 102 2
e 102 128 7
e 102 126 6
e 102 125 10
e 102 123 4
e 102 122 6
e 102 121 7
e 102 120 5
e 102 119 8
e 102 117 9
e 102 114 2
e 102 110 5
e 102 109 4
e 102 108 4
e 102 107 5
e 102 105 4
e 102 103 7
e 103 128 10
e 103 122 5
e 103 120 9
e 103 119 1
e 103 117 6
e 103 114 3
e 103 110 6
e 103 109 8
e 103 108 6
e 103 105 8
e 104 124 5
e 105 128 7
e 105 126 9
e 105 125 6
e 105 123 2
e 105 121 6
e 105 117 8
e 105 115 10
e 105 114 4
e 105 110 3
e 105 109 9
e 105 108 9
e 106 127 5
e 106 122 3
e 106 111 5
e 106 107 2
e 107 128 8
e 107 127 10
e 107 126 3
e 107 123 7
e 107 122 4
e 107 118 4
e 107 116 9
e 107 115 6
e 107 114 8
e 107 113 1
e 107 111 3
e 107 110 2
e 107 109 1
e 107 108 1
e 108 128 8
e 108 127 1
e 108 126 6
e 108 125 3
e 108 123 3
e 108 122 5
e 108 120 1
e 108 119 10
e 108 117 4
e 108 115 7
e 108 114 5
e 108 113 4
e 108 110 4
e 108 109 9
e 109 128 8
e 109 126 2
e 109 125 2
e 109 123 2
e 109 122 3
e 109 120 7
e 109 119 2
e 109 117 5
e 109 114 8
e 109 110 4
e 110 128 5
e 110 127 3
e 110 126 8
e 110 125 8
e 110 123 2
e 110 122 1
e 110 120 8
e 110 119 1
e 110 117 7
e 110 115 1
e 110 114 4
e 110 113 10
e 111 128 10
e 111 127 2
e 111 126 9
e 111 123 2
e 111 122 6
e 111 118 1
e 111 116 6
e 111 115 9
e 111 113 8
e 112 124 8
e 112 120 4
e 113 128 9
e 113 127 5
e 113 126 5
e 113 123 4
e 113 122 7
e 113 118 10
e 113 116 1
e 113 115 1
e 113 114 2
e 114 128 3
e 114 127 9
e 114 126 8
e 114 125 6
e 114 123 6
e 114 122 3
e 114 121 2
e 114 117 4
e 114 115 8
e 115 128 8
e 115 127 5
e 115 126 1
e 115 125 1
e 115 123 8
e 115 122 10
e 115 118 2
e 115 117 6
e 115 116 7
e 116 128 4
e 116 127 2
e 116 126 5
e 116 123 2
e 116 118 5
e 117 128 2
e 117 126 8
e 117 125 5
e 117 123 4
e 117 121 3
e 117 120 5
e 118 127 7
e 118 126 4
e 118 123 5
e 119 122 7
e 119 120 10
e 120 122 7
e 121 125 2
e 122 128 3
e 122 127 4
e 122 126 4
e 122 123 4
e 123 128 6
e 123 127 6
e 123 126 4
e 123 125 3
e 125 128 4
e 125 126 8
e 126 128 8
e 126 127 7
e 127 128 1